networks/zoo_104_1061/zoo_104_1061.txt
Number of groups: 60
Flow 6: {12 7} {7 59} 
Flow 8: {8 9} {9 61} 
Flow 23: {52 32} {32 84} 
Flow 59: {2 12} {12 37} {37 89} 
Flow 60: {10 38} {38 90} 
Flow 70: {3 52} {52 49} {49 4} {4 56} 
Flow 124: {5 8} {8 6} {6 58} 
Flow 149: {6 7} {7 10} {10 13} {13 65} 
Flow 162: {6 8} {8 33} {33 85} 
Flow 210: {8 7} {7 12} {12 2} {2 54} 
Flow 224: {1 18} {18 70} 
Flow 235: {49 34} {34 86} 
Flow 250: {49 51} {51 103} 
Flow 254: {9 8} 
Flow 303: {11 50} {50 48} {48 17} {17 69} 
Flow 324: {7 8} {8 22} {22 74} 
Flow 349: {13 10} {10 8} {8 60} 
Flow 368: {14 8} {8 21} {21 73} 
Flow 384: {15 49} {49 48} {48 100} 
Flow 412: {16 46} {46 98} 
Flow 452: {17 48} {48 50} {50 102} 
Flow 457: {18 1} {1 49} {49 101} 
Flow 458: {19 37} {37 10} {10 62} 
Flow 464: {20 8} {8 5} {5 57} 
Flow 508: {22 8} 
Flow 527: {23 49} {49 30} {30 82} 
Flow 535: {48 47} {47 99} 
Flow 540: {24 8} {8 49} 
Flow 546: {25 50} {50 49} {49 23} {23 75} 
Flow 553: {26 4} {4 1} {1 12} {12 64} 
Flow 560: {28 8} 
Flow 561: {29 52} 
Flow 575: {30 49} {49 46} 
Flow 591: {31 21} {21 8} {8 10} {10 37} 
Flow 600: {32 52} 
Flow 604: {34 49} 
Flow 612: {35 52} {52 46} {46 16} 
Flow 632: {36 49} {49 15} {15 67} 
Flow 661: {21 3} {3 55} 
Flow 676: {37 12} {12 1} {1 50} {50 25} {25 77} 
Flow 706: {38 10} {10 7} {7 6} {6 27} {27 79} 
Flow 718: {39 4} {4 49} 
Flow 736: {40 49} {49 16} {16 45} {45 97} 
Flow 744: {41 49} {49 36} {36 88} 
Flow 747: {42 49} {49 1} {1 53} 
Flow 776: {43 49} {49 44} {44 96} 
Flow 790: {44 49} {49 8} {8 14} {14 66} 
Flow 826: {16 49} {49 52} {52 29} {29 81} 
Flow 838: {45 17} {17 47} 
Flow 855: {46 49} {49 43} {43 95} 
Flow 861: {46 52} {52 104} 
Flow 874: {47 17} {17 45} {45 16} {16 68} 
Flow 889: {47 48} {48 49} {49 40} {40 92} 
Flow 928: {49 42} {42 94} 
Flow 947: {49 50} {50 11} {11 63} 
Flow 959: {4 26} {26 78} 
Flow 967: {52 35} {35 87} 
Flow 973: {49 41} {41 93} 
Flow 1012: {50 1} {1 4} {4 39} {39 91} 
Flow 1045: {52 3} {3 21} {21 31} {31 83} 
Time taken running everything: 27 seconds
